c Output_time 26.03.2020 18:13:09_+0100 1585242789205093487
c ** Program information **
c program_name                          "QBRG_debug"
c version                               "0.3.20"
c date                                  "25.3.2020"
c gid_id                                "673970833836058123f633335630c185360d632e"
c author                                "Oliver Kullmann"
c url                                   "https://github.com/OKullmann/oklibrary/blob/master/Satisfiability/Transformers/Generators/Random/QBRG.cpp"
c ** Machine information **
c machine_name                          "chyna-Lenovo-G50-70"
c bogomips                              3791.08
c ** Compilation information **
c compiler_version                      "g++ 7.5.0"
c compilation_date                      "Mar_26_2020 11:16:30"
c compilation_options                   "--std=c++17 -pedantic -fmax-errors=5 -Wall -Wextra -g -D_GLIBCXX_DEBUG"
c NDEBUG                                0
c OPTIMIZE                              0
c ** Parameters **
c command-line                          "./QBRG_debug" "e40 a40 40" "107*1,1|2-2,1|3-3,1" "" "1,t" ""
c output                                "QuBlRaGe_120_107_1585242789204933111.qdimacs"
c options                               "filtered,renamed"
c num_quantifier_blocks                 3
c  quantifier_blocks                    1:e1-40 2:a41-80 3:e81-120
c num_clause-blocks                     1
c  clause-blocks                        107 * {1-40,1,1/2} | {41-80,1,1/2} | {81-120,1,1/2}
c num_e-seeds                           30+2=32
c  e-seeds                              1 0 1 0 4 120 2 40 1 40 0 40 1 107 3 1 1 1 1 2 2 2 1 1 2 3 3 1 1 2 1 1585242789204932726
p cnf 112 107
e 1 2 3 4 5 6 7 8 9 10 11 12 13 14 15 16 17 18 19 20 21 22 23 24 25 26 27 28 29 30 31 32 33 34 35 36 37 38 39 0
a 40 41 42 43 44 45 46 47 48 49 50 51 52 53 54 55 56 57 58 59 60 61 62 63 64 65 66 67 68 69 70 71 72 73 74 75 76 0
e 77 78 79 80 81 82 83 84 85 86 87 88 89 90 91 92 93 94 95 96 97 98 99 100 101 102 103 104 105 106 107 108 109 110 111 112 0
14 42 -77 0
2 -49 -77 0
-21 -68 -77 0
-4 43 77 0
-25 -71 78 0
-36 76 -79 0
-4 67 79 0
-7 -74 79 0
-3 49 -80 0
19 69 80 0
-4 -74 -81 0
-11 53 81 0
13 57 81 0
17 -41 -82 0
-25 52 -82 0
25 55 -82 0
-35 56 -82 0
14 59 -82 0
-18 -72 -82 0
33 -67 -83 0
29 -76 -83 0
18 -56 83 0
-34 64 83 0
25 65 83 0
-19 46 -84 0
22 50 -84 0
10 54 -84 0
15 -47 84 0
-15 -51 84 0
-10 61 -85 0
-31 -52 85 0
21 67 85 0
8 49 -86 0
-9 -63 86 0
-7 68 86 0
25 44 -87 0
10 -47 -87 0
-38 57 -88 0
-34 -63 -88 0
37 42 -89 0
21 60 -89 0
32 -67 -89 0
19 -62 89 0
-11 -52 -90 0
-33 -58 -90 0
36 -75 90 0
-34 52 91 0
-17 -41 -92 0
-35 -71 -92 0
2 -71 -93 0
-39 -71 93 0
25 51 -94 0
25 -66 -94 0
20 70 -94 0
-1 -42 94 0
-26 47 -95 0
-38 61 -95 0
23 -66 -95 0
10 -73 -95 0
20 76 -95 0
8 -60 -96 0
24 63 -96 0
27 73 -96 0
12 44 96 0
-10 -76 96 0
8 -51 -97 0
24 -47 97 0
-5 57 97 0
6 -40 -98 0
6 -75 -98 0
30 -46 99 0
-6 -74 -100 0
-18 49 100 0
-16 -68 100 0
31 -41 -101 0
-30 66 -101 0
-24 43 -102 0
-21 -44 -102 0
-31 -50 -102 0
34 47 102 0
-11 54 -103 0
3 -45 103 0
10 -49 103 0
-6 54 103 0
7 54 103 0
34 54 -104 0
-13 -69 -104 0
17 -40 104 0
29 -56 104 0
-39 -40 105 0
-26 -48 105 0
-38 -45 -106 0
-14 61 -106 0
-10 42 106 0
10 -58 107 0
31 -70 107 0
-28 72 -108 0
23 -64 108 0
-39 76 108 0
4 61 -109 0
9 42 -110 0
-13 49 -110 0
1 60 -110 0
28 63 -110 0
-28 -54 110 0
-7 -69 -111 0
-36 70 -112 0
